
******************************************************************************
This program contains Ipopt, a library for large-scale nonlinear optimization.
 Ipopt is released as open source code under the Eclipse Public License (EPL).
         For more information visit http://projects.coin-or.org/Ipopt
******************************************************************************

This is Ipopt version trunk, running with linear solver mumps.
NOTE: Other linear solvers might be more efficient (see Ipopt documentation).

Number of nonzeros in equality constraint Jacobian...:   330624
Number of nonzeros in inequality constraint Jacobian.:        0
Number of nonzeros in Lagrangian Hessian.............:        0

Total number of variables............................:      656
                     variables with only lower bounds:        0
                variables with lower and upper bounds:      656
                     variables with only upper bounds:        0
Total number of equality constraints.................:      504
Total number of inequality constraints...............:        0
        inequality constraints with only lower bounds:        0
   inequality constraints with lower and upper bounds:        0
        inequality constraints with only upper bounds:        0

iter    objective    inf_pr   inf_du lg(mu)  ||d||  lg(rg) alpha_du alpha_pr  ls
   0  1.7910892e+00 1.20e-04 3.67e-01   0.0 0.00e+00    -  0.00e+00 0.00e+00   0
   1  2.1612780e+00 2.35e-05 5.04e-01  -1.0 3.67e-01    -  9.90e-01 1.00e+00H  1
   2  3.1164086e+00 1.50e-05 2.98e-01   0.9 5.87e-01    -  9.98e-01 1.00e+00H  1
   3  3.1165404e+00 1.50e-05 2.98e-01  -1.1 1.03e+00    -  9.98e-01 1.22e-04h 14
   4  3.8295101e+00 1.68e-05 3.57e-01  -1.1 8.10e-01    -  1.00e+00 1.00e+00H  1
   5  3.5138330e+00 1.03e-02 3.70e-01  -3.2 1.92e-01    -  9.98e-01 1.00e+00f  1
   6  2.8942277e+00 7.49e-02 3.47e-01  -3.2 3.93e-01    -  1.00e+00 1.00e+00f  1
   7  2.7945377e+00 1.21e-02 2.97e-01  -3.2 1.58e-01    -  1.00e+00 1.00e+00h  1
   8  3.1794553e+00 1.35e-03 3.66e-01  -3.2 2.05e-01    -  1.00e+00 1.00e+00H  1
   9  3.4119935e+00 3.35e-04 2.97e-01  -3.2 2.47e-01    -  1.00e+00 1.00e+00H  1
iter    objective    inf_pr   inf_du lg(mu)  ||d||  lg(rg) alpha_du alpha_pr  ls
  10  4.1786875e+00 2.72e-05 7.16e-01  -3.2 3.91e-01    -  1.00e+00 1.00e+00H  1
  11  3.3471650e+00 4.90e-04 2.60e-01  -3.2 2.34e-01    -  1.00e+00 1.00e+00F  1
  12  2.8602818e+00 1.94e-03 2.79e-01  -3.2 4.19e-01    -  1.00e+00 1.00e+00F  1
  13  2.9417868e+00 2.15e-04 1.85e-01  -3.2 1.29e-01    -  1.00e+00 1.00e+00H  1
  14  3.5782744e+00 5.51e-05 2.28e-01  -3.2 3.82e-01    -  1.00e+00 1.00e+00H  1
  15  3.1868085e+00 4.43e-06 1.46e-01  -3.2 1.38e-01    -  1.00e+00 1.00e+00F  1
  16  3.0623054e+00 6.03e-02 4.68e-01  -5.1 4.80e-01    -  1.00e+00 1.00e+00f  1
  17  2.9560721e+00 3.22e-02 1.52e-01  -5.2 3.11e-01    -  1.00e+00 1.00e+00h  1
  18  3.1055226e+00 3.08e-02 4.34e-01  -5.2 1.97e-01    -  1.00e+00 1.00e+00h  1
  19  3.0657919e+00 5.74e-03 1.19e-01  -5.2 8.70e-02    -  1.00e+00 1.00e+00h  1
iter    objective    inf_pr   inf_du lg(mu)  ||d||  lg(rg) alpha_du alpha_pr  ls
  20  3.1228084e+00 1.83e-03 3.53e-01  -5.2 2.65e-01    -  1.00e+00 1.00e+00H  1
  21  2.9957357e+00 2.50e-02 8.60e-02  -5.2 1.50e-01    -  1.00e+00 1.00e+00f  1
  22  2.9817990e+00 1.13e-03 6.35e-02  -5.2 4.15e-02    -  1.00e+00 1.00e+00h  1
  23  2.9674154e+00 2.87e-04 7.41e-02  -5.2 2.75e-02    -  1.00e+00 1.00e+00h  1
  24  2.9703351e+00 1.20e-04 2.82e-02  -5.2 2.44e-02    -  1.00e+00 1.00e+00h  1
  25  3.0160713e+00 8.69e-06 8.62e-02  -5.2 8.24e-02    -  1.00e+00 1.00e+00H  1
  26  3.0046824e+00 1.60e-04 3.43e-02  -7.1 2.92e-02    -  1.00e+00 1.00e+00h  1
  27  2.9895337e+00 1.58e-03 9.37e-02  -7.2 9.22e-02    -  1.00e+00 1.00e+00h  1
  28  2.9806665e+00 5.61e-04 9.03e-02  -7.2 3.04e-02    -  1.00e+00 1.00e+00h  1
  29  3.2117556e+00 2.14e-05 2.80e-01  -7.2 1.46e-01    -  1.00e+00 1.00e+00H  1
iter    objective    inf_pr   inf_du lg(mu)  ||d||  lg(rg) alpha_du alpha_pr  ls
  30  3.0258923e+00 8.03e-05 8.44e-02  -7.2 1.04e-01    -  1.00e+00 1.00e+00F  1
  31  3.0106028e+00 2.73e-05 1.22e-01  -7.2 7.47e-02    -  1.00e+00 1.00e+00F  1
  32  2.9917254e+00 1.23e-05 6.60e-02  -7.2 4.81e-02    -  1.00e+00 1.00e+00F  1
  33  3.0001132e+00 1.97e-07 1.09e-01  -9.0 5.66e-02    -  1.00e+00 1.00e+00H  1
  34  2.9992699e+00 2.89e-04 8.83e-02 -11.0 3.33e-02    -  1.00e+00 5.00e-01f  2
  35  3.0205618e+00 5.15e-05 1.37e-01 -11.0 7.24e-02    -  1.00e+00 1.00e+00H  1
  36  2.9942459e+00 1.32e-03 2.78e-02 -11.0 3.53e-02    -  1.00e+00 1.00e+00f  1
  37  2.9931483e+00 8.93e-05 1.79e-02 -11.0 2.02e-02    -  1.00e+00 1.00e+00h  1
  38  2.9934268e+00 1.47e-04 1.74e-02 -11.0 2.63e-02    -  1.00e+00 1.00e+00h  1
  39  3.0146593e+00 1.43e-05 4.92e-02 -11.0 2.81e-01    -  1.00e+00 1.00e+00H  1
iter    objective    inf_pr   inf_du lg(mu)  ||d||  lg(rg) alpha_du alpha_pr  ls
  40  3.2570376e+00 2.72e-06 4.19e-01 -11.0 1.31e+00    -  1.00e+00 1.00e+00H  1
  41  3.2570417e+00 2.72e-06 4.19e-01 -11.0 1.43e+00    -  1.00e+00 3.05e-05h 16
  42  3.2530713e+00 4.88e-06 4.12e-01 -11.0 5.92e-01    -  1.00e+00 3.91e-03f  9
  43  3.2501600e+00 5.32e-06 4.09e-01 -11.0 1.01e+00    -  1.00e+00 3.91e-03f  9
  44  3.2430620e+00 4.21e-06 4.89e-01 -11.0 1.13e+00    -  1.00e+00 1.00e+00F  1
  45  3.2175157e+00 3.95e-06 5.49e-01 -11.0 5.60e-01    -  1.00e+00 1.00e+00F  1
  46  3.1686246e+00 1.56e-06 2.66e-01 -11.0 8.23e-01    -  1.00e+00 1.00e+00F  1
  47  3.1614395e+00 1.01e-02 2.69e-01 -11.0 1.77e+00    -  1.00e+00 1.25e-01f  4
  48  3.8503710e+00 1.88e-03 6.01e-01 -11.0 7.69e-01    -  1.00e+00 1.00e+00H  1
  49  3.4237980e+00 9.39e-04 5.60e-01 -11.0 2.51e-01    -  1.00e+00 1.00e+00F  1
iter    objective    inf_pr   inf_du lg(mu)  ||d||  lg(rg) alpha_du alpha_pr  ls
  50  6.6842955e+00 1.44e-03 1.78e+00 -11.0 2.41e+00    -  1.00e+00 1.00e+00H  1
  51  3.4018364e+00 2.18e-03 6.89e-01 -11.0 1.41e+00    -  1.00e+00 1.00e+00F  1
  52  3.1268857e+00 5.38e-02 2.70e-01 -11.0 1.94e+00    -  1.00e+00 2.50e-01f  3
  53  3.6122435e+00 3.68e-04 3.74e-01 -11.0 7.12e-01    -  1.00e+00 1.00e+00H  1
  54  4.0962869e+00 2.03e-04 5.75e-01 -11.0 2.89e-01    -  1.00e+00 1.00e+00H  1
  55  4.0978889e+00 2.15e-04 5.75e-01 -11.0 9.56e-01    -  1.00e+00 3.91e-03h  9
  56  4.0674794e+00 2.93e-04 5.67e-01 -11.0 9.92e-01    -  1.00e+00 1.56e-02f  7
  57  3.9937389e+00 4.44e-04 5.43e-01 -11.0 1.05e+00    -  1.00e+00 3.12e-02f  6
  58  4.1745441e+00 2.67e-05 6.77e-01 -11.0 1.01e+00    -  1.00e+00 1.00e+00H  1
  59  4.2899243e+00 1.09e-05 1.35e+00 -11.0 3.25e-01    -  1.00e+00 1.00e+00H  1
iter    objective    inf_pr   inf_du lg(mu)  ||d||  lg(rg) alpha_du alpha_pr  ls
  60  3.3842200e+00 7.83e-04 3.86e-01 -11.0 2.86e-01    -  1.00e+00 1.00e+00F  1
  61  3.1760510e+00 2.46e-03 4.87e-01 -11.0 2.28e-01    -  1.00e+00 1.00e+00F  1
  62  3.0615721e+00 1.62e-02 1.91e-01 -11.0 1.37e-01    -  1.00e+00 1.00e+00f  1
  63  3.1119696e+00 5.76e-04 2.28e-01 -11.0 1.87e-01    -  1.00e+00 1.00e+00H  1
  64  3.0771960e+00 5.23e-03 2.12e-01 -11.0 7.46e-02    -  1.00e+00 1.00e+00f  1
  65  3.8240839e+00 8.93e-05 7.28e-01 -11.0 4.58e-01    -  1.00e+00 1.00e+00H  1
  66  3.0899578e+00 1.46e-03 1.44e-01 -11.0 2.91e-01    -  1.00e+00 1.00e+00F  1
  67  3.0768074e+00 3.68e-04 2.99e-01 -11.0 1.43e-01    -  1.00e+00 1.00e+00F  1
  68  3.0448046e+00 2.00e-03 1.45e-01 -11.0 7.12e-02    -  1.00e+00 1.00e+00f  1
  69  3.0299282e+00 3.51e-03 6.53e-02 -11.0 6.94e-02    -  1.00e+00 1.00e+00h  1
iter    objective    inf_pr   inf_du lg(mu)  ||d||  lg(rg) alpha_du alpha_pr  ls
  70  3.0261003e+00 4.82e-04 5.09e-02 -11.0 2.71e-02    -  1.00e+00 1.00e+00h  1
  71  3.0414182e+00 2.02e-05 1.28e-01 -11.0 5.22e-02    -  1.00e+00 1.00e+00H  1
  72  3.0475924e+00 8.12e-06 1.06e-01 -11.0 5.13e-02    -  1.00e+00 1.00e+00H  1
  73  3.2595479e+00 1.06e-06 2.59e-01 -11.0 1.42e-01    -  1.00e+00 1.00e+00H  1
  74  3.1570549e+00 7.28e-07 2.32e-01 -11.0 8.13e-02    -  1.00e+00 1.00e+00F  1
  75  3.1525443e+00 6.23e-06 2.30e-01 -11.0 7.20e-01    -  1.00e+00 3.91e-03f  9
  76  3.1391010e+00 4.27e-07 2.29e-01 -11.0 2.34e-01    -  1.00e+00 1.00e+00F  1
  77  3.0302941e+00 2.29e-04 1.41e-01 -11.0 1.02e-01    -  1.00e+00 1.00e+00F  1
  78  3.0237864e+00 2.16e-03 1.28e-01 -11.0 4.84e-02    -  1.00e+00 1.00e+00h  1
  79  3.0240737e+00 1.07e-03 9.14e-02 -11.0 3.82e-02    -  1.00e+00 5.00e-01h  2
iter    objective    inf_pr   inf_du lg(mu)  ||d||  lg(rg) alpha_du alpha_pr  ls
  80  3.0366787e+00 2.23e-05 7.69e-02 -11.0 4.74e-02    -  1.00e+00 1.00e+00H  1
  81  3.0258375e+00 3.74e-04 5.28e-02 -11.0 2.25e-02    -  1.00e+00 1.00e+00h  1
  82  3.0283921e+00 7.18e-05 1.25e-01 -11.0 8.90e-02    -  1.00e+00 1.00e+00H  1
  83  3.0138203e+00 9.32e-04 4.37e-02 -11.0 3.96e-02    -  1.00e+00 1.00e+00h  1
  84  3.0192080e+00 9.11e-06 4.31e-02 -11.0 4.51e-02    -  1.00e+00 1.00e+00H  1
  85  3.0143114e+00 1.60e-04 1.30e-02 -11.0 1.67e-02    -  1.00e+00 1.00e+00h  1
  86  3.0137067e+00 1.06e-04 2.12e-02 -11.0 1.23e-02    -  1.00e+00 1.00e+00h  1
  87  3.0136524e+00 1.52e-05 5.83e-03 -11.0 6.36e-03    -  1.00e+00 1.00e+00h  1

Number of Iterations....: 87

                                   (scaled)                 (unscaled)
Objective...............:   3.0136524275096801e+00    3.0136524275096801e+00
Dual infeasibility......:   5.8345280309290426e-03    5.8345280309290426e-03
Constraint violation....:   1.5166753188761845e-05    1.5166753188761845e-05
Complementarity.........:   1.0000000000000001e-11    1.0000000000000001e-11
Overall NLP error.......:   5.8345280309290426e-03    5.8345280309290426e-03


Number of objective function evaluations             = 302
Number of objective gradient evaluations             = 88
Number of equality constraint evaluations            = 302
Number of inequality constraint evaluations          = 0
Number of equality constraint Jacobian evaluations   = 88
Number of inequality constraint Jacobian evaluations = 0
Number of Lagrangian Hessian evaluations             = 0
Total CPU secs in IPOPT (w/o function evaluations)   =     42.432
Total CPU secs in NLP function evaluations           =     24.712

EXIT: Optimal Solution Found.
